<?xml version = "1.0" encoding="UTF-8" standalone="yes"?>
<CPLEXSolution version="1.2">
 <header
   problemName="inst_17_cut_n10"
   objectiveValue="100.55999999999999"
   solutionTypeValue="1"
   solutionTypeString="basic"
   solutionStatusValue="1"
   solutionStatusString="optimal"
   solutionMethodString="primal"
   primalFeasible="1"
   dualFeasible="1"
   simplexIterations="0"
   writeLevel="1"/>
 <quality
   epRHS="9.9999999999999995e-07"
   epOpt="9.9999999999999995e-07"
   maxPrimalInfeas="0"
   maxDualInfeas="0"
   maxPrimalResidual="3.5527136788005009e-14"
   maxDualResidual="0"
   maxX="4.5599999999999383"
   maxPi="2.0800000000000005"
   maxSlack="466.10000000000008"
   maxRedCost="26.199999999999982"
   kappa="823.04560357691207"/>
 <linearConstraints>
  <constraint name="c0" index="0" status="BS" slack="229.60000000000005" dual="-0"/>
  <constraint name="c1" index="1" status="BS" slack="301.02000000000004" dual="-0"/>
  <constraint name="c2" index="2" status="BS" slack="154.16000000000003" dual="-0"/>
  <constraint name="c3" index="3" status="BS" slack="410.66000000000003" dual="-0"/>
  <constraint name="c4" index="4" status="BS" slack="466.10000000000008" dual="-0"/>
  <constraint name="c5" index="5" status="BS" slack="418.50000000000006" dual="-0"/>
  <constraint name="c6" index="6" status="BS" slack="250.11999999999995" dual="-0"/>
  <constraint name="c7" index="7" status="BS" slack="0.60000000000002629" dual="-0"/>
  <constraint name="c8" index="8" status="BS" slack="431.19999999999999" dual="-0"/>
  <constraint name="c9" index="9" status="LL" slack="0" dual="-0"/>
  <constraint name="c10" index="10" status="BS" slack="349.36000000000001" dual="-0"/>
  <constraint name="c11" index="11" status="BS" slack="0.59999999999997655" dual="-0"/>
  <constraint name="cut_1" index="12" status="LL" slack="0" dual="2.0800000000000005"/>
  <constraint name="cut_2" index="13" status="BS" slack="0.18000000000000682" dual="-0"/>
  <constraint name="cut_3" index="14" status="BS" slack="0.039999999999984936" dual="-0"/>
  <constraint name="cut_4" index="15" status="BS" slack="0.54000000000000625" dual="-0"/>
  <constraint name="cut_5" index="16" status="BS" slack="0.099999999999972999" dual="-0"/>
  <constraint name="cut_6" index="17" status="BS" slack="0.69999999999996021" dual="-0"/>
  <constraint name="cut_7" index="18" status="BS" slack="0.079999999999980531" dual="-0"/>
  <constraint name="cut_8" index="19" status="BS" slack="0.24000000000002331" dual="-0"/>
  <constraint name="cut_9" index="20" status="LL" slack="0" dual="0.50666666666666638"/>
  <constraint name="cut_10" index="21" status="BS" slack="0.64000000000001123" dual="-0"/>
 </linearConstraints>
 <variables>
  <variable name="x0" index="0" status="BS" value="0.65999999999999892" reducedCost="0"/>
  <variable name="x1" index="1" status="LL" value="0" reducedCost="-19.320000000000004"/>
  <variable name="x2" index="2" status="LL" value="0" reducedCost="-2.0933333333333444"/>
  <variable name="x3" index="3" status="LL" value="0" reducedCost="-26.199999999999982"/>
  <variable name="x4" index="4" status="LL" value="0" reducedCost="-8.8933333333333326"/>
  <variable name="x5" index="5" status="BS" value="0.3600000000000011" reducedCost="0"/>
  <variable name="s0" index="6" status="LL" value="0" reducedCost="0"/>
  <variable name="s1" index="7" status="LL" value="0" reducedCost="0"/>
  <variable name="s2" index="8" status="LL" value="0" reducedCost="0"/>
  <variable name="s3" index="9" status="LL" value="0" reducedCost="0"/>
  <variable name="s4" index="10" status="LL" value="0" reducedCost="0"/>
  <variable name="s5" index="11" status="LL" value="0" reducedCost="0"/>
  <variable name="s6" index="12" status="LL" value="0" reducedCost="0"/>
  <variable name="s7" index="13" status="LL" value="0" reducedCost="0"/>
  <variable name="s8" index="14" status="LL" value="0" reducedCost="0"/>
  <variable name="s9" index="15" status="BS" value="4.5599999999999383" reducedCost="0"/>
  <variable name="s10" index="16" status="LL" value="0" reducedCost="0"/>
  <variable name="s11" index="17" status="LL" value="0" reducedCost="0"/>
 </variables>
 <objectiveValues>
  <objective index="0" name="" value="100.55999999999999"/>
 </objectiveValues>
</CPLEXSolution>
